Route 1: 0 63 47 58 16 39 80 0
Route 2: 0 34 6 64 51 93 78 49 60 65 2 79 46 0
Route 3: 0 3 89 81 84 22 94 69 18 100 21 19 88 0
Route 4: 0 82 41 32 30 28 29 0
Route 5: 0 14 10 75 99 36 9 52 15 85 25 13 24 0
Route 6: 0 68 4 74 31 59 5 98 61 0
Route 7: 0 48 71 92 35 73 20 45 83 27 97 55 37 0
Route 8: 0 56 86 40 70 72 50 0
Route 9: 0 8 54 77 33 26 42 23 17 12 44 38 1 0
Route 10: 0 62 53 57 91 87 90 66 95 7 43 96 67 0
Route 11: 0 76 11 0
